0000000000000000
0000000000000000
0000111111110000
0001111111110000
0000000000111000
0000000000011000
0000000000011000
0000000000011000
0000000011111000
0000001111111000
0000011100011000
0000011000011000
0000110000011000
0000110000011000
0000000000011000
0000000000000000
